certificates/rado_a7_c17_N18.cnf
c Rad2 upper bound instance: x1 + 7*x2 - x3 = 17, interval [1,18]
p cnf 18 86
1 3 5 0
-1 -3 -5 0
1 4 12 0
-1 -4 -12 0
2 3 6 0
-2 -3 -6 0
2 4 13 0
-2 -4 -13 0
3 7 0
-3 -7 0
3 4 14 0
-3 -4 -14 0
1 2 4 0
-1 -2 -4 0
3 4 8 0
-3 -4 -8 0
4 15 0
-4 -15 0
2 5 0
-2 -5 0
3 5 9 0
-3 -5 -9 0
4 5 16 0
-4 -5 -16 0
3 6 10 0
-3 -6 -10 0
4 6 17 0
-4 -6 -17 0
2 4 7 0
-2 -4 -7 0
3 7 11 0
-3 -7 -11 0
4 7 18 0
-4 -7 -18 0
2 5 8 0
-2 -5 -8 0
3 8 12 0
-3 -8 -12 0
2 6 9 0
-2 -6 -9 0
3 9 13 0
-3 -9 -13 0
2 7 10 0
-2 -7 -10 0
3 10 14 0
-3 -10 -14 0
1 11 0
-1 -11 0
2 8 11 0
-2 -8 -11 0
3 11 15 0
-3 -11 -15 0
1 2 12 0
-1 -2 -12 0
2 9 12 0
-2 -9 -12 0
3 12 16 0
-3 -12 -16 0
1 3 13 0
-1 -3 -13 0
2 10 13 0
-2 -10 -13 0
3 13 17 0
-3 -13 -17 0
1 4 14 0
-1 -4 -14 0
2 11 14 0
-2 -11 -14 0
3 14 18 0
-3 -14 -18 0
1 5 15 0
-1 -5 -15 0
2 12 15 0
-2 -12 -15 0
1 6 16 0
-1 -6 -16 0
2 13 16 0
-2 -13 -16 0
1 7 17 0
-1 -7 -17 0
2 14 17 0
-2 -14 -17 0
1 8 18 0
-1 -8 -18 0
2 15 18 0
-2 -15 -18 0
