certificates/rado_a7_c17_N18.drat
-15 -17 -18 0
5 15 0
-17 -18 0
d -15 -17 -18 0
15 -18 0
-18 0
2 -15 0
-15 17 0
15 0
-4 0
2 0
17 0
7 0
-5 0
-12 0
-14 0
-10 0
-3 0
-1 0
16 0
0
